33D32945 STP File, STP Format Version 1.0

SECTION Comment
Name    "i080-113"
Creator "Cees Duin"
Remark  "Incidence graph"
END

SECTION Graph
Nodes 80
Edges 350
E 1 4 302
E 1 8 296
E 1 10 202
E 1 13 201
E 1 19 200
E 1 20 200
E 1 25 200
E 1 34 207
E 1 42 203
E 1 47 190
E 1 49 199
E 1 50 202
E 1 51 206
E 1 56 197
E 1 61 199
E 1 64 202
E 1 65 198
E 1 78 200
E 2 6 293
E 2 19 203
E 2 29 202
E 2 30 194
E 2 42 198
E 2 45 200
E 2 59 197
E 2 62 197
E 2 64 194
E 2 79 207
E 3 4 302
E 3 26 197
E 3 31 202
E 3 38 200
E 3 43 209
E 3 56 205
E 3 57 196
E 3 58 204
E 3 61 204
E 3 63 204
E 3 66 200
E 4 9 201
E 4 10 203
E 4 11 198
E 4 34 203
E 4 67 199
E 5 7 293
E 5 21 201
E 5 26 196
E 5 31 202
E 5 32 199
E 5 44 196
E 5 55 203
E 6 7 306
E 6 15 207
E 6 16 201
E 6 21 200
E 6 22 199
E 6 46 203
E 6 52 193
E 6 61 204
E 6 62 199
E 6 64 199
E 6 68 209
E 7 13 200
E 7 25 203
E 7 32 192
E 7 35 200
E 7 41 195
E 7 57 203
E 7 67 198
E 7 71 205
E 7 72 186
E 7 77 192
E 8 22 197
E 8 39 207
E 8 43 205
E 8 61 197
E 8 78 210
E 9 10 103
E 9 29 95
E 9 32 104
E 9 42 105
E 9 70 103
E 9 73 98
E 10 16 93
E 10 24 102
E 10 32 106
E 10 34 106
E 10 38 99
E 10 39 96
E 10 59 97
E 10 60 109
E 10 63 97
E 10 75 100
E 11 14 100
E 11 16 104
E 11 23 102
E 11 26 109
E 11 39 96
E 11 63 101
E 12 27 105
E 12 42 94
E 12 58 105
E 13 16 97
E 13 36 98
E 13 43 97
E 13 47 99
E 13 56 97
E 13 75 106
E 14 18 110
E 14 53 104
E 14 54 93
E 14 62 102
E 15 16 95
E 15 24 95
E 15 25 101
E 15 41 98
E 15 61 93
E 15 62 101
E 16 39 103
E 16 62 103
E 16 72 98
E 16 75 99
E 16 78 101
E 17 18 98
E 17 21 100
E 17 24 102
E 17 28 103
E 17 38 94
E 17 51 101
E 17 54 103
E 17 55 106
E 17 56 97
E 17 59 105
E 17 75 105
E 18 20 96
E 18 43 105
E 18 45 109
E 18 54 106
E 18 55 99
E 18 58 95
E 18 59 98
E 18 65 103
E 18 70 108
E 19 22 95
E 19 34 100
E 19 49 98
E 19 52 102
E 19 58 96
E 19 72 110
E 20 25 97
E 20 28 101
E 20 44 106
E 20 47 99
E 20 54 92
E 20 70 104
E 20 77 109
E 21 33 91
E 21 38 104
E 21 49 89
E 21 59 109
E 22 37 99
E 23 38 94
E 23 56 100
E 23 70 105
E 23 78 100
E 24 31 101
E 24 39 101
E 24 46 101
E 24 51 96
E 24 62 97
E 24 79 108
E 25 40 95
E 25 52 99
E 25 53 105
E 25 58 102
E 26 32 101
E 26 37 97
E 26 38 97
E 26 57 106
E 26 64 98
E 26 72 102
E 26 74 106
E 27 32 102
E 27 42 106
E 27 45 100
E 27 55 94
E 27 64 100
E 27 78 96
E 28 32 102
E 28 36 106
E 28 42 109
E 28 44 91
E 28 55 97
E 28 62 94
E 28 71 90
E 29 33 111
E 29 35 92
E 29 39 100
E 29 75 105
E 29 79 95
E 30 38 92
E 30 41 103
E 30 44 105
E 30 48 103
E 30 54 102
E 30 62 104
E 30 65 100
E 30 71 97
E 30 73 99
E 30 80 101
E 31 48 94
E 31 65 97
E 31 75 94
E 32 33 97
E 32 36 100
E 32 46 100
E 32 50 98
E 32 62 105
E 32 66 104
E 32 72 92
E 32 80 110
E 33 48 97
E 33 52 96
E 33 66 98
E 33 71 102
E 34 36 98
E 34 40 98
E 34 68 101
E 35 40 102
E 35 43 103
E 35 61 100
E 35 73 101
E 36 50 92
E 36 53 105
E 36 58 100
E 36 65 106
E 36 72 100
E 36 80 92
E 37 55 83
E 37 57 92
E 37 75 99
E 38 47 103
E 38 52 96
E 38 57 97
E 38 69 95
E 39 44 104
E 39 62 97
E 40 41 108
E 40 51 93
E 40 56 98
E 40 60 105
E 40 62 100
E 40 63 98
E 40 65 105
E 41 51 99
E 41 66 96
E 41 74 98
E 42 45 100
E 42 64 96
E 43 50 92
E 43 59 96
E 43 64 98
E 44 67 108
E 45 51 91
E 45 70 90
E 45 71 100
E 46 52 94
E 46 66 98
E 47 48 101
E 47 53 110
E 47 54 101
E 47 56 90
E 47 57 94
E 47 58 99
E 47 71 96
E 48 52 105
E 48 59 96
E 48 64 102
E 48 72 96
E 49 60 107
E 49 61 107
E 49 63 111
E 49 76 101
E 50 56 102
E 50 57 99
E 50 69 98
E 50 79 102
E 51 52 104
E 51 53 105
E 51 60 105
E 51 71 104
E 52 63 100
E 52 64 96
E 52 67 96
E 52 74 105
E 53 59 99
E 53 69 102
E 53 73 91
E 53 75 97
E 54 57 103
E 54 59 96
E 54 65 99
E 54 66 96
E 55 57 104
E 55 58 104
E 55 78 99
E 57 74 102
E 57 76 93
E 57 80 97
E 58 59 101
E 58 60 94
E 58 61 101
E 58 71 99
E 58 78 107
E 59 64 99
E 59 65 98
E 59 75 91
E 59 77 103
E 60 64 95
E 60 72 100
E 60 74 109
E 61 65 96
E 61 66 98
E 62 63 105
E 62 65 89
E 62 66 103
E 62 68 99
E 63 71 98
E 63 75 95
E 63 78 98
E 64 67 105
E 64 68 97
E 64 69 99
E 64 72 116
E 64 79 86
E 65 66 97
E 65 73 89
E 66 74 94
E 66 76 104
E 66 78 96
E 67 69 98
E 67 78 99
E 68 76 95
E 68 78 99
E 69 77 104
E 70 74 99
E 72 75 97
E 72 79 105
E 73 74 103
E 76 77 104
END

SECTION Terminals
Terminals 8
T 1
T 2
T 3
T 4
T 5
T 6
T 7
T 8
END

EOF
